certificates/rado_a11_c142_N20.cnf
c Rad2 upper bound instance: x1 + 11*x2 - x3 = 142, interval [1,20]
p cnf 20 74
1 2 13 0
-1 -2 -13 0
1 13 14 0
-1 -13 -14 0
2 3 13 0
-2 -3 -13 0
2 14 0
-2 -14 0
3 4 13 0
-3 -4 -13 0
3 14 15 0
-3 -14 -15 0
4 5 13 0
-4 -5 -13 0
4 14 16 0
-4 -14 -16 0
5 6 13 0
-5 -6 -13 0
5 14 17 0
-5 -14 -17 0
6 7 13 0
-6 -7 -13 0
6 14 18 0
-6 -14 -18 0
7 8 13 0
-7 -8 -13 0
7 14 19 0
-7 -14 -19 0
8 9 13 0
-8 -9 -13 0
8 14 20 0
-8 -14 -20 0
9 10 13 0
-9 -10 -13 0
10 11 13 0
-10 -11 -13 0
1 11 12 0
-1 -11 -12 0
11 12 13 0
-11 -12 -13 0
2 12 0
-2 -12 0
12 13 0
-12 -13 0
3 12 13 0
-3 -12 -13 0
13 14 0
-13 -14 0
4 12 14 0
-4 -12 -14 0
13 14 15 0
-13 -14 -15 0
5 12 15 0
-5 -12 -15 0
13 15 16 0
-13 -15 -16 0
6 12 16 0
-6 -12 -16 0
13 16 17 0
-13 -16 -17 0
7 12 17 0
-7 -12 -17 0
13 17 18 0
-13 -17 -18 0
8 12 18 0
-8 -12 -18 0
13 18 19 0
-13 -18 -19 0
9 12 19 0
-9 -12 -19 0
13 19 20 0
-13 -19 -20 0
10 12 20 0
-10 -12 -20 0
