certificates/rado_a11_c142_N20.drat
-19 -20 0
d -19 -13 -20 0
-14 -20 0
-20 0
14 0
-2 0
-13 0
1 0
3 0
12 0
19 0
-11 0
-15 0
-4 0
-9 0
-7 0
10 0
16 0
5 0
8 0
6 0
0
